&bands
  filband='bands.dat'
  outdir='./output',
  lsym=.true.
/
