EMC 1.51py
19
Reciprocal
   0.0000000000    0.0000000000    0.0000000000 0.01
  -0.0169868827    0.0000000000    0.0000000000 0.01
   0.0169868827    0.0000000000    0.0000000000 0.01
   0.0000000000   -0.0169868827    0.0000000000 0.01
   0.0000000000    0.0169868827    0.0000000000 0.01
   0.0000000000    0.0000000000   -0.0169868827 0.01
   0.0000000000    0.0000000000    0.0169868827 0.01
  -0.0169868827   -0.0169868827    0.0000000000 0.01
   0.0169868827    0.0169868827    0.0000000000 0.01
   0.0169868827   -0.0169868827    0.0000000000 0.01
  -0.0169868827    0.0169868827    0.0000000000 0.01
  -0.0169868827    0.0000000000   -0.0169868827 0.01
   0.0169868827    0.0000000000    0.0169868827 0.01
   0.0169868827    0.0000000000   -0.0169868827 0.01
  -0.0169868827    0.0000000000    0.0169868827 0.01
   0.0000000000   -0.0169868827   -0.0169868827 0.01
   0.0000000000    0.0169868827    0.0169868827 0.01
   0.0000000000    0.0169868827   -0.0169868827 0.01
   0.0000000000   -0.0169868827    0.0169868827 0.01
