&CONTROL
  calculation='scf'
  outdir='./output',
  pseudo_dir='./'
  verbosity='high',
  tstress=.false.,
  tprnfor=.false.,
/

&SYSTEM
  ibrav=2,
  celldm(1)=10.2623466921d0,
  nat=2,
  ntyp=1,
  nbnd=16,
  ecutwfc=30.0d0,
  ecutrho=120.0d0
/

&ELECTRONS
  diagonalization='david',
  conv_thr=1d-06,
  mixing_mode='plain',
  mixing_beta=0.700d0,
/
&IONS
/
&CELL
/

ATOMIC_SPECIES
  Si 28.085500d0 Si.pz-vbc.UPF

ATOMIC_POSITIONS {alat}
  Si   0.0000000000d0   0.0000000000d0   0.0000000000d0
  Si   0.2500000000d0   0.2500000000d0   0.2500000000d0

K_POINTS {crystal}
8
0.5 0.5 0.5 1
0.5 0.5 0.0 1
0.5 0.0 0.5 1
0.5 0.0 0.0 1
0.0 0.5 0.5 1
0.0 0.5 0.0 1
0.0 0.0 0.5 1
0.0 0.0 0.0 1
